
n_res = 8;
rcap = [79, 78, 74, 79, 733, 749, 766, 783];
rtype = [1, 1, 1, 1, 2, 2, 2, 2];
n_tasks = 50;
modes =  [{1, 2, 3, 4, 5, 6}, {7, 8, 9, 10, 11, 12}, {13, 14, 15, 16, 17, 18}, {19, 20, 21, 22, 23, 24}, {25, 26, 27, 28, 29, 30}, {31, 32, 33, 34, 35, 36}, {37, 38, 39, 40, 41, 42}, {43, 44, 45, 46, 47, 48}, {49, 50, 51, 52, 53, 54}, {55, 56, 57, 58, 59, 60}, {61, 62, 63, 64, 65, 66}, {67, 68, 69, 70, 71, 72}, {73, 74, 75, 76, 77, 78}, {79, 80, 81, 82, 83, 84}, {85, 86, 87, 88, 89, 90}, {91, 92, 93, 94, 95, 96}, {97, 98, 99, 100, 101, 102}, {103, 104, 105, 106, 107, 108}, {109, 110, 111, 112, 113, 114}, {115, 116, 117, 118, 119, 120}, {121, 122, 123, 124, 125, 126}, {127, 128, 129, 130, 131, 132}, {133, 134, 135, 136, 137, 138}, {139, 140, 141, 142, 143, 144}, {145, 146, 147, 148, 149, 150}, {151, 152, 153, 154, 155, 156}, {157, 158, 159, 160, 161, 162}, {163, 164, 165, 166, 167, 168}, {169, 170, 171, 172, 173, 174}, {175, 176, 177, 178, 179, 180}, {181, 182, 183, 184, 185, 186}, {187, 188, 189, 190, 191, 192}, {193, 194, 195, 196, 197, 198}, {199, 200, 201, 202, 203, 204}, {205, 206, 207, 208, 209, 210}, {211, 212, 213, 214, 215, 216}, {217, 218, 219, 220, 221, 222}, {223, 224, 225, 226, 227, 228}, {229, 230, 231, 232, 233, 234}, {235, 236, 237, 238, 239, 240}, {241, 242, 243, 244, 245, 246}, {247, 248, 249, 250, 251, 252}, {253, 254, 255, 256, 257, 258}, {259, 260, 261, 262, 263, 264}, {265, 266, 267, 268, 269, 270}, {271, 272, 273, 274, 275, 276}, {277, 278, 279, 280, 281, 282}, {283, 284, 285, 286, 287, 288}, {289, 290, 291, 292, 293, 294}, {295, 296, 297, 298, 299, 300}];
succ =  [{28, 22, 17, 14, 7}, {31, 25, 18, 15, 11}, {37, 35, 31, 30, 25, 24, 22, 21, 17}, {37, 35, 31, 28, 24, 21, 18, 17}, {34, 26, 25, 23, 22, 20, 18, 14}, {37, 31, 24, 22, 21, 18, 17}, {39, 37, 36, 35, 31, 30, 26, 25, 24, 23, 21}, {36, 35, 34, 30, 26, 25, 24, 23, 22}, {37, 30, 24, 22, 17}, {39, 37, 36, 35, 34, 31, 29, 27, 24, 23}, {28, 26, 13}, {43, 37, 34, 29, 18}, {43, 42, 39, 37, 36, 34, 29, 27, 23}, {41, 39, 37, 36, 33, 31, 24}, {35, 29, 27, 24, 23}, {43, 42, 39, 34, 29, 25}, {43, 36, 27, 26, 23}, {42, 41, 39, 36, 33, 32, 30, 27}, {50, 49, 43, 42, 41, 40, 35, 33}, {50, 43, 41, 39, 33, 32}, {34, 33, 29, 27}, {42, 39, 38, 32, 29}, {50, 48, 41, 40, 33, 32}, {50, 46, 43, 42, 40, 32}, {33, 27}, {49, 48, 42, 40, 33}, {50, 49, 48, 47, 45, 40, 38}, {49, 47, 46, 42, 41, 40}, {49, 48, 47, 46, 45, 41}, {48, 47, 45, 40, 38}, {49, 48, 47, 45, 38}, {49, 47, 45, 44}, {47, 38}, {40, 38}, {47, 38}, {50, 48, 45}, {49, 45, 44}, {46, 44}, {40}, {44}, {44}, {45}, {48}, {}, {}, {}, {}, {}, {}, {}];
n_opt = 300;
dur = [9, 10, 11, 13, 14, 21, 8, 9, 10, 24, 27, 30, 5, 8, 12, 19, 26, 30, 2, 3, 6, 18, 22, 24, 11, 12, 16, 17, 23, 24, 1, 4, 8, 19, 22, 28, 8, 10, 13, 14, 23, 26, 5, 9, 12, 13, 19, 21, 4, 6, 16, 22, 23, 24, 1, 12, 19, 24, 28, 30, 11, 12, 20, 21, 25, 28, 11, 15, 21, 22, 23, 27, 2, 8, 15, 20, 22, 28, 3, 6, 8, 12, 16, 25, 1, 2, 3, 13, 17, 23, 6, 13, 18, 22, 23, 26, 4, 9, 12, 13, 23, 26, 5, 15, 16, 22, 24, 27, 10, 16, 20, 24, 27, 29, 9, 10, 11, 19, 24, 25, 9, 17, 19, 20, 22, 28, 2, 3, 6, 16, 17, 29, 4, 14, 16, 22, 23, 27, 6, 16, 18, 21, 24, 26, 6, 14, 18, 21, 26, 27, 1, 5, 7, 10, 16, 23, 1, 2, 27, 28, 29, 30, 8, 9, 21, 22, 28, 29, 17, 18, 20, 21, 22, 27, 1, 22, 23, 27, 28, 29, 3, 8, 13, 15, 18, 21, 3, 13, 14, 15, 21, 30, 13, 18, 22, 25, 26, 29, 3, 6, 7, 8, 22, 24, 5, 10, 12, 14, 19, 20, 6, 17, 19, 24, 25, 26, 6, 12, 17, 19, 28, 29, 1, 5, 7, 18, 25, 28, 5, 7, 11, 12, 15, 28, 2, 3, 5, 8, 11, 21, 8, 10, 14, 15, 16, 18, 9, 10, 13, 14, 24, 30, 4, 5, 7, 13, 23, 25, 1, 2, 7, 14, 15, 27, 6, 11, 14, 20, 26, 27, 9, 16, 19, 20, 26, 28, 10, 15, 20, 21, 23, 24, 1, 4, 9, 16, 18, 20, 6, 7, 8, 9, 10, 29, 3, 19, 23, 25, 26, 27];
rreq = [|24, 23, 23, 23, 22, 21, 27, 27, 27, 27, 27, 27, 9, 8, 6, 5, 4, 4, 12, 11, 8, 7, 7, 5, 27, 24, 24, 23, 22, 20, 13, 13, 13, 13, 12, 12, 19, 16, 13, 12, 9, 7, 8, 7, 7, 6, 4, 4, 23, 19, 18, 17, 14, 13, 10, 8, 8, 7, 6, 5, 26, 20, 19, 16, 12, 6, 25, 24, 23, 22, 22, 21, 27, 27, 27, 27, 27, 27, 12, 11, 9, 8, 5, 3, 16, 16, 16, 16, 16, 16, 29, 27, 23, 18, 17, 14, 28, 25, 22, 20, 20, 16, 22, 21, 20, 20, 20, 19, 22, 20, 17, 16, 12, 9, 8, 7, 7, 7, 7, 7, 21, 21, 19, 19, 18, 16, 12, 11, 10, 6, 4, 2, 29, 25, 18, 17, 11, 8, 18, 15, 15, 10, 8, 2, 17, 13, 13, 9, 7, 5, 14, 11, 9, 8, 6, 4, 29, 29, 28, 28, 28, 27, 11, 10, 9, 9, 6, 5, 19, 16, 15, 14, 8, 8, 28, 28, 28, 28, 28, 28, 9, 9, 9, 9, 9, 9, 12, 11, 8, 7, 6, 3, 19, 17, 16, 16, 15, 14, 27, 22, 18, 11, 8, 2, 28, 25, 24, 24, 21, 21, 20, 17, 14, 12, 10, 7, 28, 23, 19, 12, 8, 5, 18, 17, 16, 16, 15, 15, 12, 11, 9, 8, 7, 6, 19, 17, 12, 10, 8, 5, 25, 24, 23, 23, 22, 22, 17, 15, 13, 13, 11, 11, 8, 6, 6, 6, 4, 4, 15, 13, 10, 10, 6, 5, 11, 11, 10, 8, 7, 6, 23, 23, 23, 22, 22, 22, 16, 15, 13, 12, 11, 11, 6, 5, 5, 5, 4, 4, 28, 27, 25, 22, 21, 19, 26, 25, 25, 25, 25, 25
 |29, 26, 23, 21, 18, 14, 18, 14, 13, 10, 9, 7, 6, 6, 5, 5, 3, 3, 27, 25, 21, 21, 17, 16, 18, 18, 17, 17, 17, 16, 26, 26, 24, 23, 22, 22, 23, 19, 18, 16, 13, 9, 20, 18, 17, 16, 15, 15, 21, 20, 15, 15, 10, 7, 18, 17, 17, 16, 16, 16, 28, 27, 27, 27, 26, 25, 23, 22, 22, 22, 21, 20, 6, 6, 5, 3, 3, 1, 16, 14, 14, 13, 13, 12, 20, 16, 15, 13, 12, 11, 6, 5, 5, 5, 5, 5, 25, 20, 19, 14, 14, 10, 19, 17, 15, 10, 7, 6, 16, 12, 11, 9, 7, 5, 23, 22, 20, 17, 16, 14, 26, 23, 21, 19, 17, 15, 25, 21, 18, 15, 14, 9, 24, 17, 13, 13, 7, 6, 23, 23, 20, 20, 17, 16, 25, 25, 24, 24, 23, 23, 18, 17, 14, 13, 11, 9, 18, 15, 13, 9, 7, 4, 27, 25, 25, 21, 20, 15, 28, 27, 24, 20, 20, 16, 26, 20, 19, 15, 14, 9, 19, 18, 13, 10, 10, 7, 19, 19, 14, 14, 10, 8, 7, 6, 6, 6, 6, 6, 22, 21, 20, 19, 18, 18, 13, 12, 9, 8, 6, 5, 16, 13, 12, 9, 7, 5, 9, 8, 8, 8, 7, 7, 18, 15, 14, 9, 8, 7, 15, 14, 12, 10, 9, 7, 3, 2, 2, 2, 2, 2, 26, 25, 21, 15, 11, 8, 12, 12, 11, 9, 8, 8, 16, 15, 13, 12, 12, 10, 20, 19, 18, 17, 15, 14, 26, 24, 23, 21, 18, 14, 15, 15, 15, 15, 15, 15, 17, 12, 10, 6, 6, 1, 14, 12, 9, 6, 6, 2, 15, 14, 12, 10, 8, 6, 23, 21, 17, 14, 13, 11
 |23, 21, 19, 18, 18, 15, 14, 11, 10, 9, 8, 6, 14, 12, 11, 9, 8, 6, 22, 21, 21, 18, 16, 15, 15, 10, 10, 5, 4, 2, 21, 20, 18, 18, 17, 16, 11, 9, 7, 4, 4, 2, 4, 3, 3, 2, 2, 1, 19, 16, 16, 12, 11, 9, 29, 27, 25, 23, 21, 18, 4, 4, 4, 4, 4, 4, 15, 14, 13, 12, 12, 11, 22, 20, 12, 10, 5, 2, 14, 14, 10, 10, 7, 6, 19, 15, 11, 11, 6, 2, 11, 10, 9, 7, 5, 4, 27, 27, 23, 22, 18, 17, 15, 15, 15, 15, 15, 15, 22, 20, 20, 19, 18, 18, 28, 25, 24, 22, 18, 17, 26, 23, 22, 18, 15, 14, 16, 16, 14, 13, 13, 12, 22, 21, 19, 19, 17, 17, 6, 6, 6, 6, 6, 6, 26, 23, 20, 14, 11, 6, 9, 6, 5, 5, 3, 2, 23, 22, 21, 20, 18, 18, 15, 13, 10, 8, 6, 5, 23, 17, 16, 11, 11, 7, 23, 18, 14, 13, 7, 5, 11, 10, 10, 9, 8, 8, 16, 11, 9, 9, 6, 4, 15, 15, 15, 15, 15, 15, 24, 19, 17, 16, 13, 8, 27, 22, 16, 13, 8, 4, 11, 10, 8, 7, 6, 6, 17, 16, 15, 14, 13, 12, 22, 20, 19, 19, 17, 16, 1, 1, 1, 1, 1, 1, 24, 18, 14, 11, 10, 4, 27, 26, 26, 26, 26, 26, 20, 19, 19, 16, 14, 13, 26, 26, 22, 20, 19, 18, 19, 18, 15, 12, 10, 10, 20, 19, 19, 16, 16, 14, 29, 29, 29, 29, 29, 29, 18, 18, 18, 18, 18, 18, 16, 13, 12, 9, 7, 5, 26, 22, 20, 16, 13, 10, 25, 24, 24, 24, 23, 23
 |25, 23, 23, 21, 18, 17, 10, 9, 7, 6, 4, 4, 23, 22, 22, 21, 21, 20, 14, 11, 9, 8, 6, 5, 25, 25, 24, 22, 21, 21, 12, 10, 9, 7, 7, 4, 12, 10, 10, 10, 8, 8, 17, 16, 16, 14, 14, 13, 19, 17, 14, 13, 11, 10, 26, 24, 20, 20, 15, 14, 16, 16, 16, 16, 16, 16, 27, 22, 20, 16, 11, 8, 11, 9, 8, 6, 5, 2, 13, 12, 11, 10, 9, 9, 25, 23, 23, 22, 21, 20, 13, 12, 12, 11, 11, 10, 16, 16, 14, 13, 11, 8, 21, 15, 15, 9, 6, 3, 16, 15, 13, 10, 9, 6, 14, 11, 10, 8, 6, 5, 28, 23, 21, 21, 18, 16, 27, 24, 20, 20, 16, 14, 18, 17, 17, 17, 17, 17, 16, 12, 12, 10, 9, 6, 10, 8, 8, 7, 6, 4, 25, 22, 17, 16, 12, 10, 16, 16, 14, 14, 13, 12, 17, 14, 14, 11, 10, 8, 28, 24, 20, 20, 14, 13, 27, 25, 25, 24, 24, 23, 27, 26, 23, 22, 20, 18, 21, 18, 17, 16, 15, 14, 25, 25, 24, 24, 22, 22, 30, 30, 30, 30, 30, 30, 19, 16, 16, 14, 13, 12, 20, 19, 19, 17, 16, 15, 5, 4, 3, 3, 3, 2, 21, 21, 20, 17, 16, 16, 24, 22, 22, 20, 20, 19, 15, 13, 13, 11, 10, 7, 10, 10, 9, 9, 8, 8, 27, 25, 19, 19, 13, 10, 8, 6, 6, 4, 4, 3, 13, 11, 11, 10, 8, 7, 15, 14, 14, 14, 14, 14, 13, 13, 13, 12, 12, 11, 22, 21, 21, 21, 20, 20, 13, 12, 12, 12, 11, 11, 20, 16, 15, 13, 11, 10, 20, 17, 15, 14, 12, 11
 |16, 15, 13, 10, 8, 4, 23, 21, 18, 17, 14, 12, 13, 11, 9, 7, 6, 5, 23, 23, 21, 20, 20, 19, 18, 18, 13, 9, 7, 4, 24, 18, 18, 13, 9, 7, 11, 11, 11, 11, 10, 10, 10, 10, 10, 9, 8, 8, 27, 25, 22, 19, 18, 16, 9, 9, 9, 8, 7, 7, 14, 13, 12, 11, 11, 10, 28, 25, 24, 24, 23, 21, 12, 12, 12, 12, 12, 12, 22, 19, 16, 11, 9, 6, 23, 21, 19, 17, 15, 14, 28, 24, 17, 14, 6, 3, 20, 19, 17, 17, 16, 15, 3, 2, 2, 1, 1, 1, 16, 16, 13, 8, 6, 5, 30, 29, 28, 28, 27, 26, 27, 27, 26, 25, 23, 22, 17, 16, 13, 13, 12, 9, 13, 12, 12, 12, 11, 11, 29, 24, 20, 16, 12, 9, 24, 20, 15, 13, 10, 8, 28, 24, 16, 15, 11, 5, 19, 19, 17, 13, 13, 11, 28, 27, 26, 26, 25, 25, 10, 9, 8, 8, 6, 6, 15, 14, 14, 12, 11, 11, 4, 3, 3, 3, 2, 2, 23, 18, 18, 14, 8, 7, 26, 25, 24, 24, 23, 22, 14, 14, 13, 11, 11, 10, 8, 6, 6, 5, 4, 2, 22, 22, 21, 21, 21, 20, 7, 7, 7, 7, 7, 7, 23, 22, 22, 22, 22, 22, 26, 23, 20, 18, 17, 13, 24, 19, 18, 14, 11, 10, 27, 26, 24, 22, 20, 19, 10, 8, 7, 7, 5, 5, 15, 13, 13, 11, 10, 10, 19, 17, 15, 15, 11, 11, 25, 24, 19, 14, 14, 7, 6, 5, 3, 3, 2, 1, 24, 21, 18, 17, 15, 11, 8, 7, 7, 7, 7, 7, 12, 10, 10, 10, 8, 8, 25, 24, 24, 23, 22, 22
 |10, 8, 8, 7, 5, 2, 4, 4, 4, 4, 4, 4, 14, 12, 11, 9, 8, 7, 30, 26, 25, 20, 18, 16, 21, 19, 17, 14, 12, 12, 20, 18, 15, 12, 10, 9, 12, 11, 11, 11, 11, 11, 22, 20, 19, 19, 17, 14, 27, 19, 16, 13, 7, 2, 27, 22, 21, 17, 13, 11, 24, 23, 23, 21, 21, 20, 23, 19, 14, 11, 7, 2, 25, 24, 24, 24, 23, 23, 28, 27, 26, 24, 21, 19, 24, 20, 17, 17, 13, 12, 30, 25, 23, 21, 19, 14, 17, 15, 14, 13, 13, 11, 30, 21, 20, 11, 7, 5, 20, 18, 17, 15, 13, 13, 27, 25, 23, 22, 18, 17, 13, 10, 7, 6, 3, 3, 24, 21, 17, 12, 5, 5, 28, 22, 20, 17, 12, 11, 26, 25, 24, 22, 22, 21, 23, 21, 16, 13, 11, 6, 13, 13, 13, 12, 12, 12, 24, 17, 16, 11, 6, 3, 7, 6, 6, 5, 4, 3, 18, 16, 15, 13, 12, 10, 20, 18, 17, 15, 14, 12, 6, 4, 4, 3, 3, 2, 13, 10, 9, 8, 6, 3, 21, 18, 16, 14, 10, 8, 24, 19, 15, 11, 8, 4, 7, 7, 6, 4, 3, 2, 26, 26, 25, 23, 22, 22, 28, 28, 26, 26, 23, 23, 25, 22, 21, 18, 15, 14, 21, 18, 14, 12, 10, 7, 28, 25, 23, 22, 20, 16, 15, 14, 12, 12, 10, 9, 12, 11, 8, 8, 7, 5, 13, 9, 8, 5, 5, 2, 28, 28, 28, 28, 27, 27, 17, 16, 15, 14, 13, 13, 23, 22, 17, 16, 12, 9, 25, 21, 18, 17, 15, 11, 20, 14, 14, 7, 6, 1, 9, 9, 8, 7, 4, 4, 8, 8, 7, 7, 7, 6
 |27, 22, 21, 18, 14, 12, 22, 18, 16, 13, 8, 3, 26, 21, 20, 16, 16, 13, 24, 23, 23, 23, 22, 21, 23, 23, 21, 21, 20, 19, 30, 25, 24, 23, 21, 19, 10, 9, 9, 9, 9, 9, 14, 14, 14, 14, 14, 14, 8, 7, 5, 4, 4, 3, 12, 11, 11, 11, 11, 11, 13, 11, 9, 7, 5, 4, 10, 9, 8, 7, 6, 6, 21, 21, 15, 15, 11, 8, 26, 24, 23, 20, 18, 18, 17, 15, 13, 11, 10, 7, 30, 28, 25, 22, 20, 19, 21, 18, 16, 11, 8, 7, 5, 5, 4, 4, 4, 3, 25, 20, 18, 15, 13, 10, 27, 27, 24, 21, 21, 17, 24, 24, 22, 22, 20, 20, 13, 13, 13, 13, 13, 13, 28, 23, 21, 17, 15, 10, 18, 14, 13, 9, 8, 6, 23, 22, 22, 21, 20, 20, 10, 8, 6, 5, 3, 3, 23, 18, 15, 8, 8, 1, 27, 21, 18, 13, 7, 3, 18, 13, 10, 10, 7, 3, 13, 13, 13, 13, 13, 13, 16, 13, 12, 11, 7, 5, 28, 23, 20, 18, 16, 11, 26, 22, 20, 13, 11, 6, 20, 19, 19, 19, 18, 18, 15, 15, 15, 14, 13, 13, 26, 20, 18, 12, 9, 8, 29, 26, 23, 22, 20, 19, 25, 24, 23, 23, 23, 22, 27, 23, 21, 15, 14, 10, 8, 7, 7, 6, 6, 5, 26, 23, 22, 17, 12, 11, 28, 22, 18, 17, 12, 9, 20, 17, 11, 10, 5, 2, 15, 14, 13, 10, 9, 7, 22, 19, 16, 11, 11, 6, 23, 19, 19, 11, 9, 2, 29, 22, 17, 12, 12, 3, 13, 12, 8, 7, 6, 2, 24, 22, 19, 19, 16, 11, 21, 21, 21, 20, 19, 19
 |11, 10, 10, 9, 9, 8, 3, 3, 2, 2, 2, 1, 23, 21, 21, 21, 19, 19, 29, 29, 28, 28, 27, 27, 15, 13, 10, 7, 7, 2, 19, 15, 11, 9, 5, 3, 27, 25, 23, 21, 20, 20, 17, 12, 11, 9, 6, 2, 22, 18, 15, 14, 8, 7, 18, 17, 17, 17, 16, 16, 20, 18, 17, 16, 16, 15, 11, 10, 8, 7, 6, 6, 16, 16, 16, 16, 16, 16, 12, 11, 11, 11, 11, 11, 24, 20, 19, 14, 10, 7, 10, 8, 8, 6, 6, 5, 29, 29, 28, 27, 25, 25, 29, 21, 16, 15, 8, 5, 12, 11, 10, 6, 4, 3, 24, 24, 24, 24, 24, 24, 16, 15, 14, 14, 14, 13, 7, 5, 4, 4, 2, 1, 19, 19, 13, 11, 7, 6, 23, 21, 20, 18, 16, 14, 28, 28, 26, 26, 25, 23, 25, 22, 21, 17, 16, 13, 25, 18, 15, 10, 8, 5, 10, 10, 10, 9, 8, 8, 22, 17, 16, 12, 9, 4, 30, 23, 21, 18, 14, 10, 22, 21, 20, 18, 18, 17, 28, 28, 27, 27, 25, 25, 29, 26, 19, 18, 15, 10, 23, 21, 18, 18, 15, 12, 11, 10, 10, 9, 7, 7, 22, 21, 21, 20, 18, 18, 15, 13, 10, 10, 7, 6, 14, 12, 8, 8, 6, 3, 29, 23, 22, 19, 16, 15, 10, 9, 9, 9, 9, 9, 28, 24, 20, 17, 15, 14, 30, 29, 27, 27, 26, 25, 24, 24, 21, 17, 11, 10, 6, 6, 4, 3, 2, 2, 24, 23, 23, 22, 22, 22, 19, 17, 17, 16, 14, 14, 10, 9, 9, 8, 8, 8, 17, 15, 15, 13, 13, 12, 30, 26, 25, 21, 18, 16, 19, 18, 18, 17, 16, 16|];